<number of tasks>
250

<cycle time>
1000

<order strength>
0.896


<task times>
1 108
2 71
3 123
4 195
5 97
6 218
7 176
8 119
9 64
10 59
11 150
12 186
13 493
14 23
15 35
16 67
17 218
18 39
19 331
20 427
21 277
22 109
23 325
24 246
25 389
26 405
27 505
28 125
29 89
30 465
31 80
32 198
33 192
34 440
35 181
36 500
37 392
38 287
39 584
40 322
41 278
42 124
43 96
44 300
45 203
46 228
47 191
48 180
49 277
50 428
51 466
52 296
53 283
54 105
55 83
56 570
57 107
58 340
59 255
60 101
61 65
62 179
63 205
64 546
65 26
66 256
67 191
68 174
69 227
70 277
71 179
72 260
73 138
74 159
75 292
76 509
77 168
78 250
79 528
80 156
81 190
82 83
83 36
84 59
85 513
86 45
87 263
88 89
89 151
90 225
91 388
92 262
93 79
94 98
95 605
96 563
97 223
98 219
99 97
100 515
101 89
102 98
103 52
104 202
105 305
106 65
107 569
108 278
109 218
110 238
111 150
112 127
113 72
114 119
115 572
116 96
117 142
118 94
119 136
120 22
121 237
122 181
123 429
124 354
125 174
126 535
127 151
128 248
129 22
130 362
131 333
132 233
133 109
134 84
135 181
136 48
137 235
138 95
139 291
140 45
141 283
142 575
143 133
144 124
145 185
146 232
147 153
148 333
149 149
150 192
151 74
152 447
153 173
154 148
155 504
156 202
157 157
158 105
159 163
160 228
161 45
162 262
163 176
164 169
165 105
166 47
167 159
168 175
169 57
170 304
171 156
172 153
173 513
174 524
175 115
176 38
177 300
178 255
179 40
180 104
181 145
182 173
183 313
184 337
185 157
186 134
187 79
188 123
189 452
190 57
191 311
192 109
193 257
194 97
195 155
196 92
197 68
198 524
199 177
200 127
201 415
202 146
203 23
204 508
205 168
206 33
207 102
208 157
209 233
210 52
211 42
212 135
213 487
214 31
215 443
216 479
217 67
218 95
219 343
220 450
221 191
222 267
223 223
224 62
225 196
226 275
227 91
228 112
229 210
230 572
231 205
232 513
233 355
234 169
235 122
236 217
237 524
238 135
239 244
240 225
241 324
242 122
243 369
244 217
245 35
246 583
247 191
248 171
249 111
250 382

<precedence relations>
1,9
2,7
2,8
2,9
2,10
3,7
3,8
3,9
3,10
4,7
4,8
4,9
4,10
5,7
5,8
5,9
5,10
6,7
6,8
6,9
6,10
7,11
7,13
7,14
8,11
8,12
8,13
8,14
9,11
9,12
9,13
9,14
10,13
10,14
11,15
11,16
11,17
11,18
11,19
11,20
12,15
12,16
12,17
12,18
12,19
13,62
13,64
14,15
14,16
14,17
14,18
14,19
14,20
15,21
15,22
15,23
16,21
16,22
16,23
17,21
17,22
17,23
18,21
18,22
18,23
19,21
19,22
19,23
20,21
20,22
20,23
21,24
21,25
21,26
21,27
22,24
22,25
22,26
22,27
23,24
23,25
23,26
23,27
24,28
24,29
24,30
24,31
25,28
25,29
25,30
25,31
26,28
26,29
26,30
26,31
27,28
27,29
27,30
27,31
28,32
28,33
28,34
28,35
29,32
29,33
29,34
30,32
30,33
30,34
30,35
31,32
31,33
31,34
31,35
32,36
32,37
32,38
32,39
32,40
32,41
33,36
34,60
34,64
35,36
35,39
35,40
35,41
36,42
36,45
36,46
37,42
37,43
37,44
37,46
38,45
39,42
39,43
39,44
39,46
40,42
40,43
40,44
40,45
40,46
41,42
41,43
41,44
41,45
41,46
42,47
42,48
42,49
43,47
43,48
43,49
44,47
44,48
44,49
45,47
45,48
45,49
46,47
46,48
46,49
47,50
47,51
47,52
47,53
48,72
49,50
49,51
49,52
49,53
50,54
50,55
50,56
51,54
51,55
51,56
52,54
52,55
52,56
53,54
53,55
54,93
54,98
55,57
55,58
55,59
55,60
55,61
56,57
56,58
56,59
56,60
56,61
57,62
57,64
58,62
58,63
58,64
59,62
60,62
61,63
61,64
62,65
62,66
62,67
62,68
62,69
62,70
63,65
63,66
63,67
63,68
63,69
63,70
64,65
64,66
64,67
64,68
64,69
64,70
65,71
65,72
65,73
65,74
65,75
66,71
66,72
66,73
66,74
66,75
67,71
67,72
67,73
67,74
67,75
68,71
68,72
68,73
69,71
69,72
69,73
69,74
70,73
70,74
70,75
71,76
71,77
72,76
72,77
73,76
73,77
74,76
74,77
75,76
75,77
76,78
76,79
76,80
76,81
76,82
77,78
77,80
77,81
78,83
78,84
78,85
78,88
79,83
79,85
79,88
80,86
81,83
81,88
82,83
82,84
82,85
82,86
82,87
82,88
83,89
83,90
83,91
83,92
84,89
84,90
84,91
84,92
85,89
85,90
85,91
85,92
86,89
86,90
86,91
86,92
87,89
87,90
87,91
87,92
88,89
88,90
88,91
88,92
89,93
89,94
89,95
90,93
90,94
90,95
91,93
91,94
91,95
92,93
92,94
92,95
93,96
93,97
94,97
95,96
95,97
95,98
96,99
96,100
96,101
96,102
96,103
96,104
97,99
97,101
98,102
99,105
99,107
101,109
101,122
102,105
102,109
102,110
103,105
103,106
103,107
103,108
103,109
103,110
104,105
104,106
104,110
105,111
105,112
105,113
106,111
106,127
106,142
107,111
108,116
108,124
108,138
109,118
109,147
109,158
110,111
110,112
110,113
111,136
112,114
112,115
113,156
113,166
114,116
114,117
114,118
114,119
114,120
114,121
115,117
115,122
116,123
116,125
117,124
117,138
117,140
118,123
118,124
119,126
120,146
121,123
121,124
121,157
122,156
122,159
122,163
123,127
124,151
125,127
126,127
126,128
126,129
127,130
127,160
127,181
128,130
128,131
128,132
128,133
129,130
129,131
129,132
130,164
131,134
131,135
132,136
132,137
132,141
133,134
134,138
134,140
134,141
135,174
135,176
136,138
136,139
136,140
137,138
137,142
138,143
139,143
139,144
139,145
140,143
140,146
141,143
141,144
141,145
141,146
141,147
142,144
142,147
143,148
143,149
143,150
143,151
144,148
144,150
145,148
145,149
145,150
145,151
146,148
146,149
147,151
147,154
148,152
148,153
148,154
149,152
150,154
151,167
151,179
151,185
152,155
152,157
152,158
153,156
153,157
154,159
154,172
155,160
155,162
155,187
156,160
156,161
156,162
156,187
157,160
157,181
158,160
158,163
159,164
159,168
159,169
160,165
160,169
160,170
161,165
162,241
163,165
163,167
163,168
163,169
163,170
164,165
164,166
164,170
165,171
167,172
167,173
168,171
169,185
169,191
169,210
170,171
170,176
171,174
172,208
173,175
173,176
174,178
174,179
174,186
174,188
175,177
175,181
176,177
176,180
176,194
177,190
178,182
178,185
178,189
179,242
180,184
180,206
181,182
181,183
181,192
181,196
182,190
182,191
183,186
183,187
184,188
184,189
184,192
185,192
185,216
185,226
186,208
186,219
186,242
187,193
187,194
187,197
188,193
188,215
189,196
189,198
189,210
190,195
190,197
191,193
192,214
193,198
194,198
194,199
195,199
195,201
196,225
197,200
198,202
198,211
199,202
199,204
199,206
199,208
200,202
200,203
200,205
200,207
200,217
200,223
201,207
202,209
202,232
203,219
204,211
205,238
207,210
208,218
209,212
209,213
209,219
209,246
210,215
211,214
211,216
211,217
212,221
214,218
215,236
216,223
217,219
217,220
218,223
218,230
219,222
220,224
220,225
220,226
221,230
222,229
223,232
224,229
224,231
225,227
225,228
225,229
226,227
226,229
226,230
227,233
227,237
227,241
228,246
229,235
230,236
230,237
231,249
232,234
233,238
233,242
234,239
234,248
235,240
235,241
236,243
237,248
238,246
240,245
240,247
242,245
243,244
245,248
245,250
247,249
247,250

<end>
